55441
46, 39, 16, 22, 10, 29, 21, 49, 26, 55, 28, 6, 3, 43, 40, 51, 13, 41, 35, 5, 37, 7, 20, 50, 24, 38, 8, 44, 32, 19, 48, 17, 23, 53, 54, 34, 47, 4, 30, 18, 12, 9, 2, 14, 42, 33, 27, 1, 31, 25, 11, 45, 52, 15, 36
